10
0, 391, 480, 39, 346, 634, 436, 342, 336, 496
391, 0, 865, 389, 738, 371, 579, 261, 628, 111
480, 865, 0, 476, 172, 1100, 730, 731, 349, 973
39, 389, 476, 0, 353, 652, 475, 314, 304, 497
346, 738, 172, 353, 0, 941, 558, 647, 351, 842
634, 371, 1100, 652, 941, 0, 531, 630, 944, 304
436, 579, 730, 475, 558, 531, 0, 706, 750, 625
342, 261, 731, 314, 647, 630, 706, 0, 427, 355
336, 628, 349, 304, 351, 944, 750, 427, 0, 738
496, 111, 973, 497, 842, 304, 625, 355, 738, 0
